(declare-const Bracket_1 Real)
(declare-const Bracket_2 Real)
(declare-const Bracket_3 Real)
(declare-const Bracket_4 Real)
(declare-const Bracket_5 Real)
(declare-const Bracket_6 Real)
(declare-const Bracket_7 Real)
(declare-const Bracket_8 Real)
(declare-const FinalTaxes Real)
(declare-const Income Real)

(assert (= Bracket_1 (* 0.087 (ite (<= Income 44192.0) Income 44192.0))))
(assert (= Bracket_2 (* 0.145 (ite (> Income 88382.0) (- 88382.0 44192.0) (ite (> Income 44192.0) (- Income 44192.0) 0.0)))))
(assert (= Bracket_3 (* 0.158 (ite (> Income 157792.0) (- 157792.0 88382.0) (ite (> Income 88382.0) (- Income 88382.0) 0.0)))))
(assert (= Bracket_4 (* 0.178 (ite (> Income 220910.0) (- 220910.0 157792.0) (ite (> Income 157792.0) (- Income 157792.0) 0.0)))))
(assert (= Bracket_5 (* 0.198 (ite (> Income 282214.0) (- 282214.0 220910.0) (ite (> Income 220910.0) (- Income 220910.0) 0.0)))))
(assert (= Bracket_6 (* 0.208 (ite (> Income 564429.0) (- 564429.0 282214.0) (ite (> Income 282214.0) (- Income 282214.0) 0.0)))))
(assert (= Bracket_7 (* 0.213 (ite (> Income 1128858.0) (- 1128858.0 564429.0) (ite (> Income 564429.0) (- Income 564429.0) 0.0)))))
(assert (= Bracket_8 (* 0.218 (ite (> Income 1128858.0) (- Income 1128858.0) 0.0))))
(assert (= FinalTaxes (+ Bracket_1 Bracket_2 Bracket_3 Bracket_4 Bracket_5 Bracket_6 Bracket_7 Bracket_8)))
